                                        
   1.00000000000000     
     3.1782656257585651   -0.0000040113035111    0.0000000672203007
    -1.5891363952234849    2.7524560814995289   -0.0000000388464571
    -0.0000001275217548   -0.0000001227688499    5.1636189869670437
   Ga   N 
     2     2
Direct
  0.6666661979947635  0.3333330530883681  0.5003184736660148
  0.3333338136575253  0.6666669445139735  0.0003184720608816
  0.6666666449636023  0.3333340311750603  0.8776815275964758
  0.3333333433841091  0.6666659612225969  0.3776815266766281
 
  0.00000000E+00  0.00000000E+00  0.00000000E+00
  0.00000000E+00  0.00000000E+00  0.00000000E+00
  0.00000000E+00  0.00000000E+00  0.00000000E+00
  0.00000000E+00  0.00000000E+00  0.00000000E+00
