bulk_Si/ in , spin-unpolarized.         
   5.43000000000000     
     0.0000000000000000    0.5035619578531977    0.5035619578531977
     0.5035619578531977    0.0000000000000000    0.5035619578531977
     0.5035619578531977    0.5035619578531977    0.0000000000000000
   Si
     2
Direct
  0.0000000000000000  0.0000000000000000  0.0000000000000000
  0.2500000000000000  0.2500000000000000  0.2500000000000000
