supercell of bulk_Si/ in , spin-unpolarized.
5.43
  1.00712392 0.0 0.0
  0.0 1.00712392 0.0
  0.0 0.0 1.00712392
 Si 
8 
direct
    0.0000000000000000   0.0000000000000000   0.0000000000000000
    0.2499999989341916   0.2499999989341916   0.2499999989341916
    0.4999999978683832   0.0000000000000000   0.4999999978683832
    0.7499999968025748   0.2499999989341916   0.7499999968025748
    0.5000000021316169   0.4999999978683832   0.0000000000000000
    0.7500000010658084   0.7499999968025748   0.2499999989341916
    0.0000000000000000   0.4999999978683832   0.4999999978683832
    0.2499999989341916   0.7499999968025748   0.7499999968025748
